benchmarks/VRPTW/TSPTW/solution/n20w160.001.txt.solution
1 20 11 17 15 12 4 7 8 5 6 2 14 3 13 10 16 21 19 9 18 
241
